% demand
num_movements = 25;
loading_factor = [1400, 1100, 1000, 1200, 1350, 1200, 1850, 1200, 850, 950, 900, 1700, 1550, 850, 1650, 1850, 1750, 1750, 1250, 1450, 1150, 1950, 1900, 1150, 1200];
pickup_time = [0, 0, 0, 1, 1, 1, 1, 1, 1, 1, 2, 2, 2, 2, 3, 3, 3, 4, 4, 5, 6, 7, 7, 7, 7];
delivery_time = [2, 1, 3, 3, 3, 2, 2, 2, 2, 2, 3, 3, 5, 5, 5, 5, 5, 5, 5, 7, 7, 8, 8, 8, 8];

% transporter definition
total_capacity = 11000;
num_decks = 4;
capacity = [3000, 3000, 1000, 4000];

% ways out of decks
num_ways_out = 2;
paths_out = array3d(decks, ways_out, decks, [
% ways out of deck d1
2, 4, 0, 0, 3, 4, 0, 0, 

% ways out of deck d2
4, 0, 0, 0, 0, 0, 0, 0,	

% ways out of deck d3
4, 0, 0, 0, 0, 0, 0, 0,	

% ways out of deck d4
0, 0, 0, 0,	0, 0, 0, 0,	

]);

